c File: instances/10_0.45_1.col
c
c Description: Random graph of size 10 vertices and P(0.44999999999999996) of edges between any two vertices.
p col 10 45
e 1 6
e 1 8
e 2 3
e 2 6
e 2 7
e 2 9
e 3 5
e 3 7
e 4 9
e 5 8
e 5 9
e 6 7
e 7 9
e 8 10
e 9 10